NAME noswot
ROWS
 N  OBJ
 L  R0      
 L  R1      
 L  R2      
 L  R3      
 L  R4      
 L  R5      
 G  R6      
 L  R7      
 G  R8      
 L  R9      
 G  R10     
 L  R11     
 G  R12     
 L  R13     
 G  R14     
 L  R15     
 G  R16     
 G  R17     
 G  R18     
 G  R19     
 G  R20     
 G  R21     
 G  R22     
 G  R23     
 G  R24     
 G  R25     
 G  R26     
 G  R27     
 G  R28     
 G  R29     
 G  R30     
 G  R31     
 G  R32     
 G  R33     
 G  R34     
 G  R35     
 G  R36     
 G  R37     
 G  R38     
 G  R39     
 G  R40     
 G  R41     
 G  R42     
 G  R43     
 G  R44     
 G  R45     
 G  R46     
 G  R47     
 G  R48     
 G  R49     
 G  R50     
 G  R51     
 G  R52     
 G  R53     
 G  R54     
 G  R55     
 L  R56     
 L  R57     
 L  R58     
 L  R59     
 L  R60     
 L  R61     
 G  R62     
 L  R63     
 G  R64     
 L  R65     
 G  R66     
 L  R67     
 G  R68     
 L  R69     
 G  R70     
 L  R71     
 G  R72     
 G  R73     
 G  R74     
 G  R75     
 G  R76     
 G  R77     
 G  R78     
 G  R79     
 G  R80     
 G  R81     
 G  R82     
 G  R83     
 G  R84     
 G  R85     
 G  R86     
 G  R87     
 G  R88     
 G  R89     
 G  R90     
 G  R91     
 G  R92     
 G  R93     
 G  R94     
 G  R95     
 G  R96     
 G  R97     
 G  R98     
 G  R99     
 G  R100    
 G  R101    
 G  R102    
 L  R103    
 L  R104    
 L  R105    
 L  R106    
 L  R107    
 L  R108    
 G  R109    
 L  R110    
 G  R111    
 L  R112    
 G  R113    
 L  R114    
 G  R115    
 L  R116    
 G  R117    
 L  R118    
 G  R119    
 G  R120    
 G  R121    
 G  R122    
 G  R123    
 G  R124    
 G  R125    
 G  R126    
 G  R127    
 G  R128    
 G  R129    
 G  R130    
 G  R131    
 G  R132    
 G  R133    
 G  R134    
 G  R135    
 G  R136    
 G  R137    
 G  R138    
 L  R139    
 L  R140    
 L  R141    
 L  R142    
 L  R143    
 L  R144    
 G  R145    
 E  R146    
 G  R147    
 E  R148    
 G  R149    
 L  R150    
 G  R151    
 L  R152    
 G  R153    
 L  R154    
 G  R155    
 G  R156    
 G  R157    
 G  R158    
 G  R159    
 G  R160    
 G  R161    
 G  R162    
 G  R163    
 G  R164    
 L  R165    
 L  R166    
 L  R167    
 L  R168    
 L  R169    
 L  R170    
 G  R171    
 L  R172    
 G  R173    
 L  R174    
 G  R175    
 L  R176    
 G  R177    
 L  R178    
 G  R179    
 L  R180    
 L  R181    
COLUMNS
    C0        R16       21
    C0        R17       -21
    C1        R18       21
    C1        R19       -21
    C2        R20       21
    C2        R21       -21
    C3        R22       21
    C3        R23       -21
    C4        R24       21
    C4        R25       -21
    C5        R26       21
    C5        R27       -21
    C6        R28       21
    C6        R29       -21
    C7        R30       21
    C7        R31       -21
    C8        R32       21
    C8        R33       -21
    C9        R34       21
    C9        R35       -21
    C10       R36       21
    C10       R37       -21
    C11       R38       21
    C11       R39       -21
    C12       R40       21
    C12       R41       -21
    C13       R42       21
    C13       R43       -21
    C14       R44       21
    C14       R45       -21
    C15       R46       21
    C15       R47       -21
    C16       R48       21
    C16       R49       -21
    C17       R50       21
    C17       R51       -21
    C18       R52       21
    C18       R53       -21
    C19       R54       21
    C19       R55       -21
    C20       R72       21
    C20       R73       -21
    C21       R74       21
    C21       R75       -21
    C22       R76       21
    C22       R77       -21
    C23       R78       21
    C23       R79       -21
    C24       R80       21
    C24       R81       -21
    C25       R82       21
    C25       R83       -21
    C26       R84       21
    C26       R85       -21
    C27       R86       21
    C27       R87       -21
    C28       R88       21
    C28       R89       -21
    C29       R90       21
    C29       R91       -21
    C30       R92       21
    C30       R93       -21
    C31       R94       21
    C31       R95       -21
    C32       R96       21
    C32       R97       -21
    C33       R98       21
    C33       R99       -21
    C34       R100      21
    C34       R101      -21
    C35       R119      21
    C35       R120      -21
    C36       R121      21
    C36       R122      -21
    C37       R123      21
    C37       R124      -21
    C38       R125      21
    C38       R126      -21
    C39       R127      21
    C39       R128      -21
    C40       R129      21
    C40       R130      -21
    C41       R131      21
    C41       R132      -21
    C42       R133      21
    C42       R134      -21
    C43       R135      21
    C43       R136      -21
    C44       R137      21
    C44       R138      -21
    C45       R155      21
    C45       R156      -21
    C46       R157      21
    C46       R158      -21
    C47       R159      21
    C47       R160      -21
    C48       R161      21
    C48       R162      -21
    C49       R163      21
    C49       R164      -21
    C50       R1        -20
    C50       R6        -1
    C50       R7        -9.6000004000000008e+00
    C50       R17       -0.75
    C50       R27       -0.6667
    C50       R37       -0.25
    C50       R47       -0.25
    C51       OBJ       -1
    C51       R0        1
    C51       R1        2.0833001000000002e+00
    C51       R6        1
    C51       R7        1
    C51       R17       -2.0833001000000002e+00
    C51       R27       -2.0833001000000002e+00
    C51       R37       -2.0833001000000002e+00
    C51       R47       -2.0833001000000002e+00
    C51       R56       1
    C52       R2        -20
    C52       R8        -1
    C52       R9        -9.6000004000000008e+00
    C52       R19       -0.75
    C52       R29       -0.6667
    C52       R39       -0.25
    C52       R49       -0.25
    C53       OBJ       -1
    C53       R0        1
    C53       R2        2.0833001000000002e+00
    C53       R8        1
    C53       R9        1
    C53       R19       -2.0833001000000002e+00
    C53       R29       -2.0833001000000002e+00
    C53       R39       -2.0833001000000002e+00
    C53       R49       -2.0833001000000002e+00
    C53       R56       1
    C54       R3        -20
    C54       R10       -1
    C54       R11       -9.6000004000000008e+00
    C54       R21       -0.75
    C54       R31       -0.6667
    C54       R41       -0.25
    C54       R51       -0.25
    C55       OBJ       -1
    C55       R0        1
    C55       R3        2.0833001000000002e+00
    C55       R10       1
    C55       R11       1
    C55       R21       -2.0833001000000002e+00
    C55       R31       -2.0833001000000002e+00
    C55       R41       -2.0833001000000002e+00
    C55       R51       -2.0833001000000002e+00
    C55       R56       1
    C56       R4        -20
    C56       R12       -1
    C56       R13       -9.6000004000000008e+00
    C56       R23       -0.75
    C56       R33       -0.6667
    C56       R43       -0.25
    C56       R53       -0.25
    C57       OBJ       -1
    C57       R0        1
    C57       R4        2.0833001000000002e+00
    C57       R12       1
    C57       R13       1
    C57       R23       -2.0833001000000002e+00
    C57       R33       -2.0833001000000002e+00
    C57       R43       -2.0833001000000002e+00
    C57       R53       -2.0833001000000002e+00
    C57       R56       1
    C58       R5        -16
    C58       R14       -1
    C58       R15       -7.6799998000000000e+00
    C58       R25       -0.75
    C58       R35       -0.6667
    C58       R45       -0.25
    C58       R55       -0.25
    C59       OBJ       -1
    C59       R0        1
    C59       R5        2.0833001000000002e+00
    C59       R14       1
    C59       R15       1
    C59       R25       -2.0833001000000002e+00
    C59       R35       -2.0833001000000002e+00
    C59       R45       -2.0833001000000002e+00
    C59       R55       -2.0833001000000002e+00
    C59       R56       1
    C60       R16       -0.6667
    C60       R57       -20
    C60       R62       -1
    C60       R63       -6.7199998000000001e+00
    C60       R73       -0.6667
    C60       R83       -0.6667
    C60       R93       -0.6667
    C61       OBJ       -1
    C61       R0        1
    C61       R16       -2.9762000999999998e+00
    C61       R57       2.9762000999999998e+00
    C61       R62       1
    C61       R63       1
    C61       R73       -2.9762000999999998e+00
    C61       R83       -2.9762000999999998e+00
    C61       R93       -2.9762000999999998e+00
    C61       R102      1
    C61       R103      1
    C62       R18       -0.6667
    C62       R58       -20
    C62       R64       -1
    C62       R65       -6.7199998000000001e+00
    C62       R75       -0.6667
    C62       R85       -0.6667
    C62       R95       -0.6667
    C63       OBJ       -1
    C63       R0        1
    C63       R18       -2.9762000999999998e+00
    C63       R58       2.9762000999999998e+00
    C63       R64       1
    C63       R65       1
    C63       R75       -2.9762000999999998e+00
    C63       R85       -2.9762000999999998e+00
    C63       R95       -2.9762000999999998e+00
    C63       R102      1
    C63       R103      1
    C64       R20       -0.6667
    C64       R59       -20
    C64       R66       -1
    C64       R67       -6.7199998000000001e+00
    C64       R77       -0.6667
    C64       R87       -0.6667
    C64       R97       -0.6667
    C65       OBJ       -1
    C65       R0        1
    C65       R20       -2.9762000999999998e+00
    C65       R59       2.9762000999999998e+00
    C65       R66       1
    C65       R67       1
    C65       R77       -2.9762000999999998e+00
    C65       R87       -2.9762000999999998e+00
    C65       R97       -2.9762000999999998e+00
    C65       R102      1
    C65       R103      1
    C66       R22       -0.6667
    C66       R60       -20
    C66       R68       -1
    C66       R69       -6.7199998000000001e+00
    C66       R79       -0.6667
    C66       R89       -0.6667
    C66       R99       -0.6667
    C67       OBJ       -1
    C67       R0        1
    C67       R22       -2.9762000999999998e+00
    C67       R60       2.9762000999999998e+00
    C67       R68       1
    C67       R69       1
    C67       R79       -2.9762000999999998e+00
    C67       R89       -2.9762000999999998e+00
    C67       R99       -2.9762000999999998e+00
    C67       R102      1
    C67       R103      1
    C68       R24       -0.6667
    C68       R61       -16
    C68       R70       -1
    C68       R71       -5.3759999000000001e+00
    C68       R81       -0.6667
    C68       R91       -0.6667
    C68       R101      -0.6667
    C69       OBJ       -1
    C69       R0        1
    C69       R24       -2.9762000999999998e+00
    C69       R61       2.9762000999999998e+00
    C69       R70       1
    C69       R71       1
    C69       R81       -2.9762000999999998e+00
    C69       R91       -2.9762000999999998e+00
    C69       R101      -2.9762000999999998e+00
    C69       R102      1
    C69       R103      1
    C70       R26       -0.6667
    C70       R72       -0.75
    C70       R104      -20
    C70       R109      -1
    C70       R110      -5.7600002000000003e+00
    C70       R120      -0.6667
    C70       R130      -0.6667
    C71       OBJ       -1
    C71       R0        1
    C71       R26       -3.4721999000000001e+00
    C71       R72       -3.4721999000000001e+00
    C71       R104      3.4721999000000001e+00
    C71       R109      1
    C71       R110      1
    C71       R120      -3.4721999000000001e+00
    C71       R130      -3.4721999000000001e+00
    C71       R139      1
    C72       R28       -0.6667
    C72       R74       -0.75
    C72       R105      -20
    C72       R111      -1
    C72       R112      -5.7600002000000003e+00
    C72       R122      -0.6667
    C72       R132      -0.6667
    C73       OBJ       -1
    C73       R0        1
    C73       R28       -3.4721999000000001e+00
    C73       R74       -3.4721999000000001e+00
    C73       R105      3.4721999000000001e+00
    C73       R111      1
    C73       R112      1
    C73       R122      -3.4721999000000001e+00
    C73       R132      -3.4721999000000001e+00
    C73       R139      1
    C74       R30       -0.6667
    C74       R76       -0.75
    C74       R106      -20
    C74       R113      -1
    C74       R114      -5.7600002000000003e+00
    C74       R124      -0.6667
    C74       R134      -0.6667
    C75       OBJ       -1
    C75       R0        1
    C75       R30       -3.4721999000000001e+00
    C75       R76       -3.4721999000000001e+00
    C75       R106      3.4721999000000001e+00
    C75       R113      1
    C75       R114      1
    C75       R124      -3.4721999000000001e+00
    C75       R134      -3.4721999000000001e+00
    C75       R139      1
    C76       R32       -0.6667
    C76       R78       -0.75
    C76       R107      -20
    C76       R115      -1
    C76       R116      -5.7600002000000003e+00
    C76       R126      -0.6667
    C76       R136      -0.6667
    C77       OBJ       -1
    C77       R0        1
    C77       R32       -3.4721999000000001e+00
    C77       R78       -3.4721999000000001e+00
    C77       R107      3.4721999000000001e+00
    C77       R115      1
    C77       R116      1
    C77       R126      -3.4721999000000001e+00
    C77       R136      -3.4721999000000001e+00
    C77       R139      1
    C78       R34       -0.6667
    C78       R80       -0.75
    C78       R108      -16
    C78       R117      -1
    C78       R118      -4.6079998000000000e+00
    C78       R128      -0.6667
    C78       R138      -0.6667
    C79       OBJ       -1
    C79       R0        1
    C79       R34       -3.4721999000000001e+00
    C79       R80       -3.4721999000000001e+00
    C79       R108      3.4721999000000001e+00
    C79       R117      1
    C79       R118      1
    C79       R128      -3.4721999000000001e+00
    C79       R138      -3.4721999000000001e+00
    C79       R139      1
    C80       R36       -0.25
    C80       R82       -0.75
    C80       R119      -0.6667
    C80       R140      -20
    C80       R145      -1
    C80       R146      -8.9280004999999996e+00
    C80       R156      -0.25
    C81       OBJ       -1
    C81       R0        1
    C81       R36       -2.2400999000000001e+00
    C81       R82       -2.2400999000000001e+00
    C81       R119      -2.2400999000000001e+00
    C81       R140      2.2400999000000001e+00
    C81       R145      1
    C81       R146      1
    C81       R156      -2.2400999000000001e+00
    C81       R165      1
    C82       R38       -0.25
    C82       R84       -0.75
    C82       R121      -0.6667
    C82       R141      -20
    C82       R147      -1
    C82       R148      -8.9280004999999996e+00
    C82       R158      -0.25
    C83       OBJ       -1
    C83       R0        1
    C83       R38       -2.2400999000000001e+00
    C83       R84       -2.2400999000000001e+00
    C83       R121      -2.2400999000000001e+00
    C83       R141      2.2400999000000001e+00
    C83       R147      1
    C83       R148      1
    C83       R158      -2.2400999000000001e+00
    C83       R165      1
    C84       R40       -0.25
    C84       R86       -0.75
    C84       R123      -0.6667
    C84       R142      -20
    C84       R149      -1
    C84       R150      -8.9280004999999996e+00
    C84       R160      -0.25
    C85       OBJ       -1
    C85       R0        1
    C85       R40       -2.2400999000000001e+00
    C85       R86       -2.2400999000000001e+00
    C85       R123      -2.2400999000000001e+00
    C85       R142      2.2400999000000001e+00
    C85       R149      1
    C85       R150      1
    C85       R160      -2.2400999000000001e+00
    C85       R165      1
    C86       R42       -0.25
    C86       R88       -0.75
    C86       R125      -0.6667
    C86       R143      -20
    C86       R151      -1
    C86       R152      -8.9280004999999996e+00
    C86       R162      -0.25
    C87       OBJ       -1
    C87       R0        1
    C87       R42       -2.2400999000000001e+00
    C87       R88       -2.2400999000000001e+00
    C87       R125      -2.2400999000000001e+00
    C87       R143      2.2400999000000001e+00
    C87       R151      1
    C87       R152      1
    C87       R162      -2.2400999000000001e+00
    C87       R165      1
    C88       R44       -0.25
    C88       R90       -0.75
    C88       R127      -0.6667
    C88       R144      -16
    C88       R153      -1
    C88       R154      -7.1423997999999997e+00
    C88       R164      -0.25
    C89       OBJ       -1
    C89       R0        1
    C89       R44       -2.2400999000000001e+00
    C89       R90       -2.2400999000000001e+00
    C89       R127      -2.2400999000000001e+00
    C89       R144      2.2400999000000001e+00
    C89       R153      1
    C89       R154      1
    C89       R164      -2.2400999000000001e+00
    C89       R165      1
    C90       R46       -0.6667
    C90       R92       -0.75
    C90       R129      -0.6667
    C90       R155      -0.6667
    C90       R166      -20
    C90       R171      -1
    C90       R172      -9.6000004000000008e+00
    C91       OBJ       -1
    C91       R0        1
    C91       R46       -2.0833001000000002e+00
    C91       R92       -2.0833001000000002e+00
    C91       R129      -2.0833001000000002e+00
    C91       R155      -2.0833001000000002e+00
    C91       R166      2.0833001000000002e+00
    C91       R171      1
    C91       R172      1
    C91       R181      1
    C92       R48       -0.6667
    C92       R94       -0.75
    C92       R131      -0.6667
    C92       R157      -0.6667
    C92       R167      -20
    C92       R173      -1
    C92       R174      -9.6000004000000008e+00
    C93       OBJ       -1
    C93       R0        1
    C93       R48       -2.0833001000000002e+00
    C93       R94       -2.0833001000000002e+00
    C93       R131      -2.0833001000000002e+00
    C93       R157      -2.0833001000000002e+00
    C93       R167      2.0833001000000002e+00
    C93       R173      1
    C93       R174      1
    C93       R181      1
    C94       R50       -0.6667
    C94       R96       -0.75
    C94       R133      -0.6667
    C94       R159      -0.6667
    C94       R168      -20
    C94       R175      -1
    C94       R176      -9.6000004000000008e+00
    C95       OBJ       -1
    C95       R0        1
    C95       R50       -2.0833001000000002e+00
    C95       R96       -2.0833001000000002e+00
    C95       R133      -2.0833001000000002e+00
    C95       R159      -2.0833001000000002e+00
    C95       R168      2.0833001000000002e+00
    C95       R175      1
    C95       R176      1
    C95       R181      1
    C96       R52       -0.6667
    C96       R98       -0.75
    C96       R135      -0.6667
    C96       R161      -0.6667
    C96       R169      -20
    C96       R177      -1
    C96       R178      -9.6000004000000008e+00
    C97       OBJ       -1
    C97       R0        1
    C97       R52       -2.0833001000000002e+00
    C97       R98       -2.0833001000000002e+00
    C97       R135      -2.0833001000000002e+00
    C97       R161      -2.0833001000000002e+00
    C97       R169      2.0833001000000002e+00
    C97       R177      1
    C97       R178      1
    C97       R181      1
    C98       R54       -0.6667
    C98       R100      -0.75
    C98       R137      -0.6667
    C98       R163      -0.6667
    C98       R170      -16
    C98       R179      -1
    C98       R180      -7.6799998000000000e+00
    C99       OBJ       -1
    C99       R0        1
    C99       R54       -2.0833001000000002e+00
    C99       R100      -2.0833001000000002e+00
    C99       R137      -2.0833001000000002e+00
    C99       R163      -2.0833001000000002e+00
    C99       R170      2.0833001000000002e+00
    C99       R179      1
    C99       R180      1
    C99       R181      1
    C100      R1        1
    C100      R16       1
    C100      R17       -1
    C100      R26       1
    C100      R27       -1
    C100      R36       1
    C100      R37       -1
    C100      R46       1
    C100      R47       -1
    C101      R2        1
    C101      R18       1
    C101      R19       -1
    C101      R28       1
    C101      R29       -1
    C101      R38       1
    C101      R39       -1
    C101      R48       1
    C101      R49       -1
    C102      R3        1
    C102      R20       1
    C102      R21       -1
    C102      R30       1
    C102      R31       -1
    C102      R40       1
    C102      R41       -1
    C102      R50       1
    C102      R51       -1
    C103      R4        1
    C103      R22       1
    C103      R23       -1
    C103      R32       1
    C103      R33       -1
    C103      R42       1
    C103      R43       -1
    C103      R52       1
    C103      R53       -1
    C104      R5        1
    C104      R24       1
    C104      R25       -1
    C104      R34       1
    C104      R35       -1
    C104      R44       1
    C104      R45       -1
    C104      R54       1
    C104      R55       -1
    C105      R16       -1
    C105      R17       1
    C105      R57       1
    C105      R72       1
    C105      R73       -1
    C105      R82       1
    C105      R83       -1
    C105      R92       1
    C105      R93       -1
    C106      R18       -1
    C106      R19       1
    C106      R58       1
    C106      R74       1
    C106      R75       -1
    C106      R84       1
    C106      R85       -1
    C106      R94       1
    C106      R95       -1
    C107      R20       -1
    C107      R21       1
    C107      R59       1
    C107      R76       1
    C107      R77       -1
    C107      R86       1
    C107      R87       -1
    C107      R96       1
    C107      R97       -1
    C108      R22       -1
    C108      R23       1
    C108      R60       1
    C108      R78       1
    C108      R79       -1
    C108      R88       1
    C108      R89       -1
    C108      R98       1
    C108      R99       -1
    C109      R24       -1
    C109      R25       1
    C109      R61       1
    C109      R80       1
    C109      R81       -1
    C109      R90       1
    C109      R91       -1
    C109      R100      1
    C109      R101      -1
    C110      R26       -1
    C110      R27       1
    C110      R72       -1
    C110      R73       1
    C110      R104      1
    C110      R119      1
    C110      R120      -1
    C110      R129      1
    C110      R130      -1
    C111      R28       -1
    C111      R29       1
    C111      R74       -1
    C111      R75       1
    C111      R105      1
    C111      R121      1
    C111      R122      -1
    C111      R131      1
    C111      R132      -1
    C112      R30       -1
    C112      R31       1
    C112      R76       -1
    C112      R77       1
    C112      R106      1
    C112      R123      1
    C112      R124      -1
    C112      R133      1
    C112      R134      -1
    C113      R32       -1
    C113      R33       1
    C113      R78       -1
    C113      R79       1
    C113      R107      1
    C113      R125      1
    C113      R126      -1
    C113      R135      1
    C113      R136      -1
    C114      R34       -1
    C114      R35       1
    C114      R80       -1
    C114      R81       1
    C114      R108      1
    C114      R127      1
    C114      R128      -1
    C114      R137      1
    C114      R138      -1
    C115      R36       -1
    C115      R37       1
    C115      R82       -1
    C115      R83       1
    C115      R119      -1
    C115      R120      1
    C115      R140      1
    C115      R155      1
    C115      R156      -1
    C116      R38       -1
    C116      R39       1
    C116      R84       -1
    C116      R85       1
    C116      R121      -1
    C116      R122      1
    C116      R141      1
    C116      R157      1
    C116      R158      -1
    C117      R40       -1
    C117      R41       1
    C117      R86       -1
    C117      R87       1
    C117      R123      -1
    C117      R124      1
    C117      R142      1
    C117      R159      1
    C117      R160      -1
    C118      R42       -1
    C118      R43       1
    C118      R88       -1
    C118      R89       1
    C118      R125      -1
    C118      R126      1
    C118      R143      1
    C118      R161      1
    C118      R162      -1
    C119      R44       -1
    C119      R45       1
    C119      R90       -1
    C119      R91       1
    C119      R127      -1
    C119      R128      1
    C119      R144      1
    C119      R163      1
    C119      R164      -1
    C120      R46       -1
    C120      R47       1
    C120      R92       -1
    C120      R93       1
    C120      R129      -1
    C120      R130      1
    C120      R155      -1
    C120      R156      1
    C120      R166      1
    C121      R48       -1
    C121      R49       1
    C121      R94       -1
    C121      R95       1
    C121      R131      -1
    C121      R132      1
    C121      R157      -1
    C121      R158      1
    C121      R167      1
    C122      R50       -1
    C122      R51       1
    C122      R96       -1
    C122      R97       1
    C122      R133      -1
    C122      R134      1
    C122      R159      -1
    C122      R160      1
    C122      R168      1
    C123      R52       -1
    C123      R53       1
    C123      R98       -1
    C123      R99       1
    C123      R135      -1
    C123      R136      1
    C123      R161      -1
    C123      R162      1
    C123      R169      1
    C124      R54       -1
    C124      R55       1
    C124      R100      -1
    C124      R101      1
    C124      R137      -1
    C124      R138      1
    C124      R163      -1
    C124      R164      1
    C124      R170      1
    C125      R148      1
    C126      R146      1
    C127      R150      2
    C127      R152      3
    C127      R154      4
RHS
    RHS1      R0        43
    RHS1      R17       -21
    RHS1      R19       -21
    RHS1      R21       -21
    RHS1      R23       -21
    RHS1      R25       -21
    RHS1      R27       -21
    RHS1      R29       -21
    RHS1      R31       -21
    RHS1      R33       -21
    RHS1      R35       -21
    RHS1      R37       -21
    RHS1      R39       -21
    RHS1      R41       -21
    RHS1      R43       -21
    RHS1      R45       -21
    RHS1      R47       -21
    RHS1      R49       -21
    RHS1      R51       -21
    RHS1      R53       -21
    RHS1      R55       -21
    RHS1      R56       38
    RHS1      R73       -21
    RHS1      R75       -21
    RHS1      R77       -21
    RHS1      R79       -21
    RHS1      R81       -21
    RHS1      R83       -21
    RHS1      R85       -21
    RHS1      R87       -21
    RHS1      R89       -21
    RHS1      R91       -21
    RHS1      R93       -21
    RHS1      R95       -21
    RHS1      R97       -21
    RHS1      R99       -21
    RHS1      R101      -21
    RHS1      R102      5
    RHS1      R103      9
    RHS1      R120      -21
    RHS1      R122      -21
    RHS1      R124      -21
    RHS1      R126      -21
    RHS1      R128      -21
    RHS1      R130      -21
    RHS1      R132      -21
    RHS1      R134      -21
    RHS1      R136      -21
    RHS1      R138      -21
    RHS1      R139      2
    RHS1      R156      -21
    RHS1      R158      -21
    RHS1      R160      -21
    RHS1      R162      -21
    RHS1      R164      -21
    RHS1      R165      1
    RHS1      R181      2
BOUNDS
 UP BND1      C0        1
 UP BND1      C1        1
 UP BND1      C2        1
 UP BND1      C3        1
 UP BND1      C4        1
 UP BND1      C5        1
 UP BND1      C6        1
 UP BND1      C7        1
 UP BND1      C8        1
 UP BND1      C9        1
 UP BND1      C10       1
 UP BND1      C11       1
 UP BND1      C12       1
 UP BND1      C13       1
 UP BND1      C14       1
 UP BND1      C15       1
 UP BND1      C16       1
 UP BND1      C17       1
 UP BND1      C18       1
 UP BND1      C19       1
 UP BND1      C20       1
 UP BND1      C21       1
 UP BND1      C22       1
 UP BND1      C23       1
 UP BND1      C24       1
 UP BND1      C25       1
 UP BND1      C26       1
 UP BND1      C27       1
 UP BND1      C28       1
 UP BND1      C29       1
 UP BND1      C30       1
 UP BND1      C31       1
 UP BND1      C32       1
 UP BND1      C33       1
 UP BND1      C34       1
 UP BND1      C35       1
 UP BND1      C36       1
 UP BND1      C37       1
 UP BND1      C38       1
 UP BND1      C39       1
 UP BND1      C40       1
 UP BND1      C41       1
 UP BND1      C42       1
 UP BND1      C43       1
 UP BND1      C44       1
 UP BND1      C45       1
 UP BND1      C46       1
 UP BND1      C47       1
 UP BND1      C48       1
 UP BND1      C49       1
 UP BND1      C50       1
 UP BND1      C51       100000
 UP BND1      C52       1
 UP BND1      C53       100000
 UP BND1      C54       1
 UP BND1      C55       100000
 UP BND1      C56       1
 UP BND1      C57       100000
 UP BND1      C58       1
 UP BND1      C59       100000
 UP BND1      C60       1
 UP BND1      C61       100000
 UP BND1      C62       1
 UP BND1      C63       100000
 UP BND1      C64       1
 UP BND1      C65       100000
 UP BND1      C66       1
 UP BND1      C67       100000
 UP BND1      C68       1
 UP BND1      C69       100000
 UP BND1      C70       1
 UP BND1      C71       100000
 UP BND1      C72       1
 UP BND1      C73       100000
 UP BND1      C74       1
 UP BND1      C75       100000
 UP BND1      C76       1
 UP BND1      C77       100000
 UP BND1      C78       1
 UP BND1      C79       100000
 UP BND1      C80       1
 UP BND1      C81       100000
 UP BND1      C82       1
 UP BND1      C83       100000
 UP BND1      C84       1
 UP BND1      C85       100000
 UP BND1      C86       1
 UP BND1      C87       100000
 UP BND1      C88       1
 UP BND1      C89       100000
 UP BND1      C90       1
 UP BND1      C91       100000
 UP BND1      C92       1
 UP BND1      C93       100000
 UP BND1      C94       1
 UP BND1      C95       100000
 UP BND1      C96       1
 UP BND1      C97       100000
 UP BND1      C98       1
 UP BND1      C99       100000
ENDATA
